21
1 0 15
2 0 15
2 1 9
3 0 1
3 1 13
3 2 14
4 0 20
4 1 23
4 2 7
4 3 6
5 0 20
5 1 5
5 2 6
5 3 1
5 4 7
6 0 13
6 1 7
6 2 19
6 3 14
6 4 20
6 5 3
7 0 8
7 1 2
7 2 13
7 3 23
7 4 6
7 5 18
7 6 22
8 0 16
8 1 20
8 2 1
8 3 15
8 4 18
8 5 8
8 6 9
8 7 10
9 0 7
9 1 8
9 2 18
9 3 7
9 4 11
9 5 12
9 6 14
9 7 16
9 8 22
10 0 16
10 1 7
10 2 15
10 3 5
10 4 18
10 5 2
10 6 11
10 7 1
10 8 9
10 9 22
11 0 9
11 1 16
11 2 12
11 3 22
11 4 4
11 5 12
11 6 1
11 7 3
11 8 11
11 9 16
11 10 23
12 0 7
12 1 23
12 2 10
12 3 11
12 4 19
12 5 1
12 6 20
12 7 10
12 8 3
12 9 19
12 10 13
12 11 5
13 0 17
13 1 6
13 2 22
13 3 12
13 4 9
13 5 2
13 6 1
13 7 6
13 8 6
13 9 6
13 10 5
13 11 23
13 12 4
14 0 22
14 1 1
14 2 11
14 3 22
14 4 2
14 5 10
14 6 14
14 7 17
14 8 22
14 9 16
14 10 23
14 11 20
14 12 13
14 13 22
15 0 14
15 1 6
15 2 13
15 3 22
15 4 9
15 5 16
15 6 6
15 7 5
15 8 4
15 9 22
15 10 8
15 11 14
15 12 4
15 13 5
15 14 10
16 0 14
16 1 7
16 2 20
16 3 5
16 4 4
16 5 9
16 6 21
16 7 4
16 8 18
16 9 12
16 10 18
16 11 23
16 12 10
16 13 1
16 14 23
16 15 5
17 0 20
17 1 17
17 2 19
17 3 7
17 4 5
17 5 13
17 6 9
17 7 2
17 8 12
17 9 13
17 10 11
17 11 13
17 12 1
17 13 21
17 14 23
17 15 4
17 16 23
18 0 12
18 1 2
18 2 9
18 3 8
18 4 19
18 5 5
18 6 18
18 7 17
18 8 8
18 9 12
18 10 10
18 11 3
18 12 19
18 13 17
18 14 2
18 15 4
18 16 13
18 17 23
19 0 23
19 1 3
19 2 5
19 3 7
19 4 12
19 5 19
19 6 9
19 7 8
19 8 10
19 9 2
19 10 16
19 11 21
19 12 13
19 13 20
19 14 5
19 15 19
19 16 10
19 17 20
19 18 11
20 0 2
20 1 7
20 2 20
20 3 21
20 4 12
20 5 22
20 6 16
20 7 9
20 8 13
20 9 4
20 10 2
20 11 18
20 12 13
20 13 23
20 14 14
20 15 21
20 16 17
20 17 11
20 18 22
20 19 19
